<?xml version = "1.0" standalone="yes"?>
<!-- This file has been generated by DOcplex version 2.23.222  -->
<CPLEXSolution version="1.0">
 <header
   problemName="CVRP"
   objectiveValue="9762.88"
  />
 <variables>
  <variable name="x_0_2" index="1" value="1.00000"/>
  <variable name="x_0_3" index="2" value="1.00000"/>
  <variable name="x_0_8" index="7" value="1.00000"/>
  <variable name="x_0_9" index="8" value="1.00000"/>
  <variable name="x_0_10" index="9" value="1.00000"/>
  <variable name="x_0_11" index="10" value="1.00000"/>
  <variable name="x_0_16" index="15" value="1.00000"/>
  <variable name="x_1_0" index="16" value="1.00000"/>
  <variable name="x_2_15" index="46" value="1.00000"/>
  <variable name="x_3_0" index="48" value="1.00000"/>
  <variable name="x_4_7" index="70" value="1.00000"/>
  <variable name="x_5_0" index="80" value="1.00000"/>
  <variable name="x_6_0" index="96" value="1.00000"/>
  <variable name="x_7_0" index="112" value="1.00000"/>
  <variable name="x_8_12" index="139" value="1.00000"/>
  <variable name="x_9_6" index="150" value="1.00000"/>
  <variable name="x_10_5" index="165" value="1.00000"/>
  <variable name="x_11_13" index="188" value="1.00000"/>
  <variable name="x_12_14" index="205" value="1.00000"/>
  <variable name="x_13_1" index="209" value="1.00000"/>
  <variable name="x_14_0" index="224" value="1.00000"/>
  <variable name="x_15_4" index="244" value="1.00000"/>
  <variable name="x_16_0" index="256" value="1.00000"/>
  <variable name="u_1" index="272" value="47.00000"/>
  <variable name="u_2" index="273" value="5.00000"/>
  <variable name="u_3" index="274" value="49.00000"/>
  <variable name="u_4" index="275" value="24.00000"/>
  <variable name="u_5" index="276" value="45.00000"/>
  <variable name="u_6" index="277" value="49.00000"/>
  <variable name="u_7" index="278" value="48.00000"/>
  <variable name="u_8" index="279" value="22.00000"/>
  <variable name="u_9" index="280" value="26.00000"/>
  <variable name="u_10" index="281" value="40.00000"/>
  <variable name="u_11" index="282" value="5.00000"/>
  <variable name="u_12" index="283" value="32.00000"/>
  <variable name="u_13" index="284" value="45.00000"/>
  <variable name="u_14" index="285" value="36.00000"/>
  <variable name="u_15" index="286" value="12.00000"/>
  <variable name="u_16" index="287" value="49.00000"/>
 </variables>
</CPLEXSolution>
